p tw 289 333
1 2
2 113
3 14
4 5
5 6
5 10
6 7
7 8
8 9
9 13
10 11
11 12
12 13
13 15
14 25
15 16
16 17
17 18
18 52
19 20
20 21
21 22
21 24
22 23
23 52
24 26
25 36
26 27
27 28
27 30
28 29
29 52
30 31
31 32
32 33
32 35
33 34
34 52
35 37
36 47
37 38
38 39
38 41
39 40
40 52
41 42
42 43
43 44
43 46
44 45
45 52
46 48
47 58
48 49
48 3
49 50
50 51
51 52
52 53
53 54
54 55
55 56
56 57
57 59
57 62
58 69
58 114
59 60
60 61
61 62
61 67
62 63
63 64
63 67
64 65
65 66
66 67
67 68
68 70
69 80
70 71
70 100
71 72
72 73
72 104
73 74
74 75
75 76
76 77
76 81
77 78
78 79
79 81
79 84
80 91
81 82
82 83
83 86
84 85
85 86
86 87
87 88
88 89
88 93
89 90
90 92
91 102
92 96
93 94
94 95
95 96
96 97
97 98
98 99
99 104
100 101
101 103
102 114
102 136
103 104
104 105
105 106
105 149
106 107
107 108
107 3
108 109
109 110
110 111
111 112
112 115
113 213
114 125
115 116
116 117
117 118
117 124
118 119
119 120
120 121
121 122
122 123
123 109
124 126
125 210
126 127
126 3
127 128
128 129
129 130
129 3
130 131
131 132
132 133
133 134
134 135
135 137
136 147
137 138
137 140
138 139
139 142
140 141
141 142
142 143
143 144
144 145
145 146
146 148
147 158
148 109
149 150
150 151
150 179
151 152
152 153
152 165
153 154
154 155
154 157
155 156
156 160
157 159
158 169
158 192
159 160
160 161
161 162
162 163
163 164
164 3
165 166
166 167
167 168
167 3
168 170
168 174
169 180
170 171
171 172
172 173
173 3
174 175
175 176
176 177
177 178
178 3
179 181
180 191
181 182
182 183
182 3
183 184
184 185
185 186
186 187
187 3
188 189
189 190
190 208
191 202
192 193
193 194
194 195
194 196
195 210
196 197
197 198
198 199
198 201
199 200
200 3
201 203
202 212
202 188
203 204
204 205
204 208
205 206
206 207
207 3
208 209
209 210
210 211
212 214
213 224
214 215
215 216
216 217
217 218
217 188
218 219
219 220
220 221
221 222
222 223
223 225
223 227
224 235
225 226
226 227
227 228
228 229
229 230
230 231
230 267
231 232
232 233
233 234
233 267
234 236
235 246
236 237
237 238
238 239
239 240
240 241
240 252
241 242
242 243
243 244
244 245
244 252
245 247
246 257
247 248
248 249
249 250
250 251
251 237
252 253
253 254
254 255
255 256
256 258
257 268
258 259
259 260
260 261
261 262
262 263
263 264
264 265
265 266
266 52
267 269
268 279
269 270
269 19
270 271
271 272
272 273
272 19
273 274
274 275
275 276
276 277
277 278
277 284
278 280
279 3
280 281
281 282
281 284
282 283
283 284
284 285
285 286
286 287
286 289
287 288
288 16
289 4
